instances/knapsack/discrete_knapsack_uncertainty/knapsack_60_17.lp
\ Model knapsack_60_17
\ LP format - for model browsing. Use MPS format to capture full model detail.
\ Signature: 0x44a844bc7146bef8
Minimize
  - 68 x[0] - 80 x[1] - 62 x[2] - 46 x[3] - 91 x[4] - 3 x[5] - 87 x[6]
   - 33 x[7] - 44 x[8] - 56 x[9] - 41 x[10] - 81 x[11] - 37 x[12]
   - 28 x[13] - 49 x[14] - 30 x[15] - 68 x[16] - 88 x[17] - 100 x[18]
   - 67 x[19] - 87 x[20] - 61 x[21] - 22 x[22] - 18 x[23] - 79 x[24]
   - 100 x[25] - 46 x[26] - 97 x[27] - 32 x[28] - 34 x[29] - 39 x[30]
   - 2 x[31] - 58 x[32] - 61 x[33] - 17 x[34] - 79 x[35] - 23 x[36]
   - 61 x[37] - 36 x[38] - 61 x[39] - 34 x[40] - 63 x[41] - 3 x[42]
   - 97 x[43] - 80 x[44] - 21 x[45] - 18 x[46] - 86 x[47] - 78 x[48]
   - 19 x[49] - 25 x[50] - 80 x[51] - 93 x[52] - 55 x[53] - 26 x[54]
   - 68 x[55] - 92 x[56] - 14 x[57] - 46 x[58] - 93 x[59]
Subject To
 primal_upper: 47 x[0] + 60 x[1] + 98 x[2] + 7 x[3] + 56 x[4] + 65 x[5]
   + 13 x[6] + 99 x[7] + 5 x[8] + 94 x[9] + 59 x[10] + 19 x[11] + 4 x[12]
   + 24 x[13] + 16 x[14] + 24 x[15] + 97 x[16] + 16 x[17] + 5 x[18]
   + 14 x[19] + 45 x[20] + 87 x[21] + 24 x[22] + 82 x[23] + 20 x[24]
   + 76 x[25] + 10 x[26] + 87 x[27] + 93 x[28] + 23 x[29] + 69 x[30]
   + 75 x[31] + 79 x[32] + 77 x[33] + 32 x[34] + 73 x[35] + 76 x[36]
   + 80 x[37] + 96 x[38] + 22 x[39] + 59 x[40] + 17 x[41] + 94 x[42]
   + 77 x[43] + 27 x[44] + 58 x[45] + 69 x[46] + 69 x[47] + 75 x[48]
   + 60 x[49] + 2 x[50] + 64 x[51] + 65 x[52] + 64 x[53] + 36 x[54]
   + 91 x[55] + x[56] + 66 x[57] + 16 x[58] + 46 x[59] + 4.7 r[0] + 6 r[1]
   + 9.8 r[2] + 0.7 r[3] + 5.6 r[4] + 6.5 r[5] + 1.3 r[6] + 9.9 r[7]
   + 0.5 r[8] + 9.4 r[9] + 5.9 r[10] + 1.9 r[11] + 0.4 r[12] + 2.4 r[13]
   + 1.6 r[14] + 2.4 r[15] + 9.7 r[16] + 1.6 r[17] + 0.5 r[18] + 1.4 r[19]
   + 4.5 r[20] + 8.7 r[21] + 2.4 r[22] + 8.2 r[23] + 2 r[24] + 7.6 r[25]
   + r[26] + 8.7 r[27] + 9.3 r[28] + 2.3 r[29] + 6.9 r[30] + 7.5 r[31]
   + 7.9 r[32] + 7.7 r[33] + 3.2 r[34] + 7.3 r[35] + 7.6 r[36] + 8 r[37]
   + 9.6 r[38] + 2.2 r[39] + 5.9 r[40] + 1.7 r[41] + 9.4 r[42] + 7.7 r[43]
   + 2.7 r[44] + 5.8 r[45] + 6.9 r[46] + 6.9 r[47] + 7.5 r[48] + 6 r[49]
   + 0.2 r[50] + 6.4 r[51] + 6.5 r[52] + 6.4 r[53] + 3.6 r[54] + 9.1 r[55]
   + 0.1 r[56] + 6.6 r[57] + 1.6 r[58] + 4.6 r[59] <= 295
 primal_lower: 1.398399165822834 x[0] + 2.891105036193363 x[1]
   + 4.646959038964727 x[2] + 0.7681372149361786 x[3]
   + 0.207133355567006 x[4] + 3.922076451307316 x[5]
   + 2.596875747335911 x[6] + 2.678113181283899 x[7]
   + 2.981079613968299 x[8] + 2.046227070020148 x[9]
   + 1.42534135601317 x[10] + 2.981022932903235 x[11]
   + 1.405340859731405 x[12] + 0.6175714784147703 x[13]
   + 0.6689108081967822 x[14] + 4.077013100771805 x[15]
   + 0.5995949398811818 x[16] + 3.470700684350695 x[17]
   + 4.348459066291047 x[18] + 2.001813004233935 x[19]
   + 5.177965161851217 x[20] + 2.380831077644362 x[21]
   + 3.686077757315978 x[22] + 3.250043463234979 x[23]
   + 0.0801546573457922 x[24] + 4.003228257122793 x[25]
   + 4.819134847929678 x[26] + 3.710540842313422 x[27]
   + 4.17662748389973 x[28] + 0.8712883210819083 x[29]
   + 3.850238824908679 x[30] + 2.149530982633892 x[31]
   + 3.048729255069056 x[32] + 3.240537383477256 x[33]
   + 0.1869440922257284 x[34] + 3.097950809521556 x[35]
   + 3.303143082999759 x[36] + 1.991622792069395 x[37]
   + 5.108275935337085 x[38] + 0.8905541399534704 x[39]
   + 1.993386178959375 x[40] + 4.739681163572873 x[41]
   + 2.966768299188113 x[42] + 3.811478589565202 x[43]
   + 4.539917056546408 x[44] + 3.612164292951604 x[45]
   + 0.9464352267036745 x[46] + 0.5940479404713706 x[47]
   + 2.028876775702768 x[48] + 1.297994883520509 x[49]
   + 4.255294839414938 x[50] + 2.125088691362581 x[51]
   + 3.7458087058338 x[52] + 3.350332701266305 x[53]
   + 4.750290780873543 x[54] + 1.136347002634276 x[55]
   + 1.404358281164794 x[56] + 1.756434457737053 x[57]
   + 2.530863451476205 x[58] + 4.434740460934264 x[59] + 49 u[0] + 97 u[1]
   + 71 u[2] + 84 u[3] + 65 u[4] + 7 u[5] + 18 u[6] + 21 u[7] + 74 u[8]
   + 75 u[9] + 61 u[10] + 68 u[11] + 65 u[12] + 57 u[13] + 30 u[14]
   + 74 u[15] + 98 u[16] + 17 u[17] + 70 u[18] + 63 u[19] + 46 u[20]
   + 53 u[21] + 65 u[22] + 48 u[23] + 90 u[24] + 37 u[25] + 83 u[26]
   + 77 u[27] + 7 u[28] + 44 u[29] + 39 u[30] + 65 u[31] + 93 u[32]
   + 78 u[33] + 21 u[34] + 2 u[35] + 45 u[36] + 94 u[37] + 17 u[38]
   + 40 u[39] + 28 u[40] + 11 u[41] + 71 u[42] + 15 u[43] + 72 u[44]
   + 76 u[45] + 59 u[46] + 63 u[47] + 64 u[48] + 93 u[49] + 28 u[50]
   + 97 u[51] + 90 u[52] + 65 u[53] + 66 u[54] + 21 u[55] + 38 u[56]
   + 20 u[57] + u[58] + 91 u[59] <= 38956
 mccormick1[0]: - u[0] + r[0] <= 0
 mccormick1[1]: - u[1] + r[1] <= 0
 mccormick1[2]: - u[2] + r[2] <= 0
 mccormick1[3]: - u[3] + r[3] <= 0
 mccormick1[4]: - u[4] + r[4] <= 0
 mccormick1[5]: - u[5] + r[5] <= 0
 mccormick1[6]: - u[6] + r[6] <= 0
 mccormick1[7]: - u[7] + r[7] <= 0
 mccormick1[8]: - u[8] + r[8] <= 0
 mccormick1[9]: - u[9] + r[9] <= 0
 mccormick1[10]: - u[10] + r[10] <= 0
 mccormick1[11]: - u[11] + r[11] <= 0
 mccormick1[12]: - u[12] + r[12] <= 0
 mccormick1[13]: - u[13] + r[13] <= 0
 mccormick1[14]: - u[14] + r[14] <= 0
 mccormick1[15]: - u[15] + r[15] <= 0
 mccormick1[16]: - u[16] + r[16] <= 0
 mccormick1[17]: - u[17] + r[17] <= 0
 mccormick1[18]: - u[18] + r[18] <= 0
 mccormick1[19]: - u[19] + r[19] <= 0
 mccormick1[20]: - u[20] + r[20] <= 0
 mccormick1[21]: - u[21] + r[21] <= 0
 mccormick1[22]: - u[22] + r[22] <= 0
 mccormick1[23]: - u[23] + r[23] <= 0
 mccormick1[24]: - u[24] + r[24] <= 0
 mccormick1[25]: - u[25] + r[25] <= 0
 mccormick1[26]: - u[26] + r[26] <= 0
 mccormick1[27]: - u[27] + r[27] <= 0
 mccormick1[28]: - u[28] + r[28] <= 0
 mccormick1[29]: - u[29] + r[29] <= 0
 mccormick1[30]: - u[30] + r[30] <= 0
 mccormick1[31]: - u[31] + r[31] <= 0
 mccormick1[32]: - u[32] + r[32] <= 0
 mccormick1[33]: - u[33] + r[33] <= 0
 mccormick1[34]: - u[34] + r[34] <= 0
 mccormick1[35]: - u[35] + r[35] <= 0
 mccormick1[36]: - u[36] + r[36] <= 0
 mccormick1[37]: - u[37] + r[37] <= 0
 mccormick1[38]: - u[38] + r[38] <= 0
 mccormick1[39]: - u[39] + r[39] <= 0
 mccormick1[40]: - u[40] + r[40] <= 0
 mccormick1[41]: - u[41] + r[41] <= 0
 mccormick1[42]: - u[42] + r[42] <= 0
 mccormick1[43]: - u[43] + r[43] <= 0
 mccormick1[44]: - u[44] + r[44] <= 0
 mccormick1[45]: - u[45] + r[45] <= 0
 mccormick1[46]: - u[46] + r[46] <= 0
 mccormick1[47]: - u[47] + r[47] <= 0
 mccormick1[48]: - u[48] + r[48] <= 0
 mccormick1[49]: - u[49] + r[49] <= 0
 mccormick1[50]: - u[50] + r[50] <= 0
 mccormick1[51]: - u[51] + r[51] <= 0
 mccormick1[52]: - u[52] + r[52] <= 0
 mccormick1[53]: - u[53] + r[53] <= 0
 mccormick1[54]: - u[54] + r[54] <= 0
 mccormick1[55]: - u[55] + r[55] <= 0
 mccormick1[56]: - u[56] + r[56] <= 0
 mccormick1[57]: - u[57] + r[57] <= 0
 mccormick1[58]: - u[58] + r[58] <= 0
 mccormick1[59]: - u[59] + r[59] <= 0
 mccormick2[0]: - x[0] + r[0] <= 0
 mccormick2[1]: - x[1] + r[1] <= 0
 mccormick2[2]: - x[2] + r[2] <= 0
 mccormick2[3]: - x[3] + r[3] <= 0
 mccormick2[4]: - x[4] + r[4] <= 0
 mccormick2[5]: - x[5] + r[5] <= 0
 mccormick2[6]: - x[6] + r[6] <= 0
 mccormick2[7]: - x[7] + r[7] <= 0
 mccormick2[8]: - x[8] + r[8] <= 0
 mccormick2[9]: - x[9] + r[9] <= 0
 mccormick2[10]: - x[10] + r[10] <= 0
 mccormick2[11]: - x[11] + r[11] <= 0
 mccormick2[12]: - x[12] + r[12] <= 0
 mccormick2[13]: - x[13] + r[13] <= 0
 mccormick2[14]: - x[14] + r[14] <= 0
 mccormick2[15]: - x[15] + r[15] <= 0
 mccormick2[16]: - x[16] + r[16] <= 0
 mccormick2[17]: - x[17] + r[17] <= 0
 mccormick2[18]: - x[18] + r[18] <= 0
 mccormick2[19]: - x[19] + r[19] <= 0
 mccormick2[20]: - x[20] + r[20] <= 0
 mccormick2[21]: - x[21] + r[21] <= 0
 mccormick2[22]: - x[22] + r[22] <= 0
 mccormick2[23]: - x[23] + r[23] <= 0
 mccormick2[24]: - x[24] + r[24] <= 0
 mccormick2[25]: - x[25] + r[25] <= 0
 mccormick2[26]: - x[26] + r[26] <= 0
 mccormick2[27]: - x[27] + r[27] <= 0
 mccormick2[28]: - x[28] + r[28] <= 0
 mccormick2[29]: - x[29] + r[29] <= 0
 mccormick2[30]: - x[30] + r[30] <= 0
 mccormick2[31]: - x[31] + r[31] <= 0
 mccormick2[32]: - x[32] + r[32] <= 0
 mccormick2[33]: - x[33] + r[33] <= 0
 mccormick2[34]: - x[34] + r[34] <= 0
 mccormick2[35]: - x[35] + r[35] <= 0
 mccormick2[36]: - x[36] + r[36] <= 0
 mccormick2[37]: - x[37] + r[37] <= 0
 mccormick2[38]: - x[38] + r[38] <= 0
 mccormick2[39]: - x[39] + r[39] <= 0
 mccormick2[40]: - x[40] + r[40] <= 0
 mccormick2[41]: - x[41] + r[41] <= 0
 mccormick2[42]: - x[42] + r[42] <= 0
 mccormick2[43]: - x[43] + r[43] <= 0
 mccormick2[44]: - x[44] + r[44] <= 0
 mccormick2[45]: - x[45] + r[45] <= 0
 mccormick2[46]: - x[46] + r[46] <= 0
 mccormick2[47]: - x[47] + r[47] <= 0
 mccormick2[48]: - x[48] + r[48] <= 0
 mccormick2[49]: - x[49] + r[49] <= 0
 mccormick2[50]: - x[50] + r[50] <= 0
 mccormick2[51]: - x[51] + r[51] <= 0
 mccormick2[52]: - x[52] + r[52] <= 0
 mccormick2[53]: - x[53] + r[53] <= 0
 mccormick2[54]: - x[54] + r[54] <= 0
 mccormick2[55]: - x[55] + r[55] <= 0
 mccormick2[56]: - x[56] + r[56] <= 0
 mccormick2[57]: - x[57] + r[57] <= 0
 mccormick2[58]: - x[58] + r[58] <= 0
 mccormick2[59]: - x[59] + r[59] <= 0
 mccormick3[0]: x[0] + u[0] - r[0] <= 1
 mccormick3[1]: x[1] + u[1] - r[1] <= 1
 mccormick3[2]: x[2] + u[2] - r[2] <= 1
 mccormick3[3]: x[3] + u[3] - r[3] <= 1
 mccormick3[4]: x[4] + u[4] - r[4] <= 1
 mccormick3[5]: x[5] + u[5] - r[5] <= 1
 mccormick3[6]: x[6] + u[6] - r[6] <= 1
 mccormick3[7]: x[7] + u[7] - r[7] <= 1
 mccormick3[8]: x[8] + u[8] - r[8] <= 1
 mccormick3[9]: x[9] + u[9] - r[9] <= 1
 mccormick3[10]: x[10] + u[10] - r[10] <= 1
 mccormick3[11]: x[11] + u[11] - r[11] <= 1
 mccormick3[12]: x[12] + u[12] - r[12] <= 1
 mccormick3[13]: x[13] + u[13] - r[13] <= 1
 mccormick3[14]: x[14] + u[14] - r[14] <= 1
 mccormick3[15]: x[15] + u[15] - r[15] <= 1
 mccormick3[16]: x[16] + u[16] - r[16] <= 1
 mccormick3[17]: x[17] + u[17] - r[17] <= 1
 mccormick3[18]: x[18] + u[18] - r[18] <= 1
 mccormick3[19]: x[19] + u[19] - r[19] <= 1
 mccormick3[20]: x[20] + u[20] - r[20] <= 1
 mccormick3[21]: x[21] + u[21] - r[21] <= 1
 mccormick3[22]: x[22] + u[22] - r[22] <= 1
 mccormick3[23]: x[23] + u[23] - r[23] <= 1
 mccormick3[24]: x[24] + u[24] - r[24] <= 1
 mccormick3[25]: x[25] + u[25] - r[25] <= 1
 mccormick3[26]: x[26] + u[26] - r[26] <= 1
 mccormick3[27]: x[27] + u[27] - r[27] <= 1
 mccormick3[28]: x[28] + u[28] - r[28] <= 1
 mccormick3[29]: x[29] + u[29] - r[29] <= 1
 mccormick3[30]: x[30] + u[30] - r[30] <= 1
 mccormick3[31]: x[31] + u[31] - r[31] <= 1
 mccormick3[32]: x[32] + u[32] - r[32] <= 1
 mccormick3[33]: x[33] + u[33] - r[33] <= 1
 mccormick3[34]: x[34] + u[34] - r[34] <= 1
 mccormick3[35]: x[35] + u[35] - r[35] <= 1
 mccormick3[36]: x[36] + u[36] - r[36] <= 1
 mccormick3[37]: x[37] + u[37] - r[37] <= 1
 mccormick3[38]: x[38] + u[38] - r[38] <= 1
 mccormick3[39]: x[39] + u[39] - r[39] <= 1
 mccormick3[40]: x[40] + u[40] - r[40] <= 1
 mccormick3[41]: x[41] + u[41] - r[41] <= 1
 mccormick3[42]: x[42] + u[42] - r[42] <= 1
 mccormick3[43]: x[43] + u[43] - r[43] <= 1
 mccormick3[44]: x[44] + u[44] - r[44] <= 1
 mccormick3[45]: x[45] + u[45] - r[45] <= 1
 mccormick3[46]: x[46] + u[46] - r[46] <= 1
 mccormick3[47]: x[47] + u[47] - r[47] <= 1
 mccormick3[48]: x[48] + u[48] - r[48] <= 1
 mccormick3[49]: x[49] + u[49] - r[49] <= 1
 mccormick3[50]: x[50] + u[50] - r[50] <= 1
 mccormick3[51]: x[51] + u[51] - r[51] <= 1
 mccormick3[52]: x[52] + u[52] - r[52] <= 1
 mccormick3[53]: x[53] + u[53] - r[53] <= 1
 mccormick3[54]: x[54] + u[54] - r[54] <= 1
 mccormick3[55]: x[55] + u[55] - r[55] <= 1
 mccormick3[56]: x[56] + u[56] - r[56] <= 1
 mccormick3[57]: x[57] + u[57] - r[57] <= 1
 mccormick3[58]: x[58] + u[58] - r[58] <= 1
 mccormick3[59]: x[59] + u[59] - r[59] <= 1
Bounds
Binaries
 x[0] x[1] x[2] x[3] x[4] x[5] x[6] x[7] x[8] x[9] x[10] x[11] x[12] x[13]
 x[14] x[15] x[16] x[17] x[18] x[19] x[20] x[21] x[22] x[23] x[24] x[25]
 x[26] x[27] x[28] x[29] x[30] x[31] x[32] x[33] x[34] x[35] x[36] x[37]
 x[38] x[39] x[40] x[41] x[42] x[43] x[44] x[45] x[46] x[47] x[48] x[49]
 x[50] x[51] x[52] x[53] x[54] x[55] x[56] x[57] x[58] x[59] u[0] u[1] u[2]
 u[3] u[4] u[5] u[6] u[7] u[8] u[9] u[10] u[11] u[12] u[13] u[14] u[15]
 u[16] u[17] u[18] u[19] u[20] u[21] u[22] u[23] u[24] u[25] u[26] u[27]
 u[28] u[29] u[30] u[31] u[32] u[33] u[34] u[35] u[36] u[37] u[38] u[39]
 u[40] u[41] u[42] u[43] u[44] u[45] u[46] u[47] u[48] u[49] u[50] u[51]
 u[52] u[53] u[54] u[55] u[56] u[57] u[58] u[59] r[0] r[1] r[2] r[3] r[4]
 r[5] r[6] r[7] r[8] r[9] r[10] r[11] r[12] r[13] r[14] r[15] r[16] r[17]
 r[18] r[19] r[20] r[21] r[22] r[23] r[24] r[25] r[26] r[27] r[28] r[29]
 r[30] r[31] r[32] r[33] r[34] r[35] r[36] r[37] r[38] r[39] r[40] r[41]
 r[42] r[43] r[44] r[45] r[46] r[47] r[48] r[49] r[50] r[51] r[52] r[53]
 r[54] r[55] r[56] r[57] r[58] r[59]
End
