instances/knapsack/discrete/knapsack_60_17.kp
93437
60
295

47 4.7 68
60 6.0 80
98 9.8 62
7 0.7 46
56 5.6 91
65 6.5 3
13 1.3 87
99 9.9 33
5 0.5 44
94 9.4 56
59 5.9 41
19 1.9 81
4 0.4 37
24 2.4 28
16 1.6 49
24 2.4 30
97 9.7 68
16 1.6 88
5 0.5 100
14 1.4 67
45 4.5 87
87 8.7 61
24 2.4 22
82 8.2 18
20 2.0 79
76 7.6 100
10 1.0 46
87 8.7 97
93 9.3 32
23 2.3 34
69 6.9 39
75 7.5 2
79 7.9 58
77 7.7 61
32 3.2 17
73 7.3 79
76 7.6 23
80 8.0 61
96 9.6 36
22 2.2 61
59 5.9 34
17 1.7 63
94 9.4 3
77 7.7 97
27 2.7 80
58 5.8 21
69 6.9 18
69 6.9 86
75 7.5 78
60 6.0 19
2 0.2 25
64 6.4 80
65 6.5 93
64 6.4 55
36 3.6 26
91 9.1 68
1 0.1 92
66 6.6 14
16 1.6 46
46 4.6 93

38956
312

[1.398399165822834 2.891105036193363 4.646959038964727 0.7681372149361786 0.20713335556700604 3.9220764513073156 2.596875747335911 2.678113181283899 2.981079613968299 2.0462270700201484 1.42534135601317 2.9810229329032354 1.405340859731405 0.6175714784147703 0.6689108081967822 4.077013100771805 0.5995949398811818 3.470700684350695 4.3484590662910465 2.0018130042339353 5.177965161851217 2.3808310776443617 3.6860777573159775 3.250043463234979 0.08015465734579218 4.003228257122793 4.819134847929678 3.7105408423134216 4.17662748389973 0.8712883210819083 3.850238824908679 2.149530982633892 3.048729255069056 3.2405373834772555 0.18694409222572844 3.097950809521556 3.3031430829997586 1.9916227920693947 5.108275935337085 0.8905541399534704 1.9933861789593745 4.739681163572873 2.966768299188113 3.8114785895652017 4.5399170565464075 3.612164292951604 0.9464352267036745 0.5940479404713706 2.028876775702768 1.2979948835205093 4.255294839414938 2.125088691362581 3.7458087058337997 3.3503327012663053 4.750290780873543 1.136347002634276 1.404358281164794 1.756434457737053 2.530863451476205 4.434740460934264]

[49 97 71 84 65 7 18 21 74 75 61 68 65 57 30 74 98 17 70 63 46 53 65 48 90 37 83 77 7 44 39 65 93 78 21 2 45 94 17 40 28 11 71 15 72 76 59 63 64 93 28 97 90 65 66 21 38 20 1 91]
